c 96_win_checker.cnf
c
c field = 96
c formula set type = win_checker
c
p cnf 5 80
182 
184 
186 
188 
-180 
183 
185 
187 
189 
-181 
182 
184 
186 
188 
-192 
183 
185 
187 
189 
-193 
184 
186 
188 
192 
-182 
185 
187 
189 
193 
-183 
184 
186 
188 
192 
-194 
185 
187 
189 
193 
-195 
186 
188 
192 
194 
-184 
187 
189 
193 
195 
-185 
186 
188 
192 
194 
-196 
187 
189 
193 
195 
-197 
188 
192 
194 
196 
-186 
189 
193 
195 
197 
-187 
188 
192 
194 
196 
-198 
189 
193 
195 
197 
-199 
192 
194 
196 
198 
-188 
193 
195 
197 
199 
-189 
192 
194 
196 
198 
-200 
193 
195 
197 
199 
-201 
70 
100 
130 
160 
-40 
71 
101 
131 
161 
-41 
70 
100 
130 
160 
-220 
71 
101 
131 
161 
-221 
100 
130 
160 
220 
-70 
101 
131 
161 
221 
-71 
100 
130 
160 
220 
-250 
101 
131 
161 
221 
-251 
130 
160 
220 
250 
-100 
131 
161 
221 
251 
-101 
130 
160 
220 
250 
-280 
131 
161 
221 
251 
-281 
160 
220 
250 
280 
-130 
161 
221 
251 
281 
-131 
160 
220 
250 
280 
-310 
161 
221 
251 
281 
-311 
220 
250 
280 
310 
-160 
221 
251 
281 
311 
-161 
220 
250 
280 
310 
-340 
221 
251 
281 
311 
-341 
62 
94 
126 
158 
-30 
63 
95 
127 
159 
-31 
62 
94 
126 
158 
-222 
63 
95 
127 
159 
-223 
94 
126 
158 
222 
-62 
95 
127 
159 
223 
-63 
94 
126 
158 
222 
-254 
95 
127 
159 
223 
-255 
126 
158 
222 
254 
-94 
127 
159 
223 
255 
-95 
126 
158 
222 
254 
-286 
127 
159 
223 
255 
-287 
158 
222 
254 
286 
-126 
159 
223 
255 
287 
-127 
158 
222 
254 
286 
-318 
159 
223 
255 
287 
-319 
222 
254 
286 
318 
-158 
223 
255 
287 
319 
-159 
222 
254 
286 
318 
-350 
223 
255 
287 
319 
-351 
78 
106 
134 
162 
-50 
79 
107 
135 
163 
-51 
78 
106 
134 
162 
-218 
79 
107 
135 
163 
-219 
106 
134 
162 
218 
-78 
107 
135 
163 
219 
-79 
106 
134 
162 
218 
-246 
107 
135 
163 
219 
-247 
134 
162 
218 
246 
-106 
135 
163 
219 
247 
-107 
134 
162 
218 
246 
-274 
135 
163 
219 
247 
-275 
162 
218 
246 
274 
-134 
163 
219 
247 
275 
-135 
162 
218 
246 
274 
-302 
163 
219 
247 
275 
-303 
218 
246 
274 
302 
-162 
219 
247 
275 
303 
-163 
218 
246 
274 
302 
-330 
219 
247 
275 
303 
-331 
